# Solution for model problem
# Objective value = 6
CLIENT_PE6_0 1
CLIENT_PE4_1 1
src_1 1
iir_3 1
idct_1 1
sink_0 1
CLIENT_PE0_0 0
CLIENT_PE2_0 0
CLIENT_PE3_0 0
CLIENT_PE4_0 0
CLIENT_PE7_0 0
CLIENT_PE13_0 0
CLIENT_PE14_0 0
CLIENT_PE0_1 0
CLIENT_PE2_1 0
CLIENT_PE3_1 0
CLIENT_PE6_1 0
CLIENT_PE7_1 0
CLIENT_PE13_1 0
CLIENT_PE14_1 0
src_0 0
src_2 0
src_3 0
src_4 0
iir_0 0
iir_1 0
iir_2 0
iir_4 0
sink_1 0
sink_2 0
sink_3 0
sink_4 0
idct_0 0
idct_2 0
idct_3 0
idct_4 0
